p edge 40 107
e 1 23
e 1 27
e 23 27
e 2 13
e 13 24
e 4 5
e 2 23
e 2 26
e 2 27
e 13 23
e 13 26
e 13 27
e 23 26
e 26 27
e 13 30
e 13 38
e 30 38
e 34 35
e 20 25
e 20 32
e 20 35
e 25 32
e 25 35
e 32 35
e 21 33
e 17 34
e 17 40
e 34 40
e 23 30
e 23 38
e 26 30
e 26 38
e 27 30
e 27 38
e 3 12
e 3 26
e 3 27
e 12 26
e 12 27
e 8 12
e 7 26
e 7 36
e 26 36
e 3 30
e 3 38
e 12 30
e 12 38
e 5 24
e 18 22
e 18 25
e 22 25
e 16 24
e 16 28
e 16 29
e 24 28
e 24 29
e 28 29
e 29 40
e 6 18
e 6 20
e 6 25
e 6 35
e 18 20
e 18 35
e 24 40
e 20 22
e 20 36
e 22 36
e 15 31
e 15 35
e 31 35
e 10 15
e 10 31
e 28 35
e 35 37
e 35 39
e 37 39
e 14 16
e 14 31
e 16 31
e 15 19
e 15 38
e 19 31
e 19 38
e 31 38
e 11 19
e 11 28
e 19 28
e 19 33
e 9 32
e 14 22
e 14 28
e 14 37
e 22 28
e 22 37
e 28 37
e 14 33
e 33 37
e 33 39
e 33 40
e 37 40
e 39 40
e 32 39
e 32 40
e 21 32
e 21 39
e 21 40
